
Gurobi 13.0.1 (linux64) logging started Sun Mar 22 06:19:57 2026

Set parameter LogFile to value "logs/100B_3F_robust_gamma_0d75_theta_0d05199999999999999_2026-03-22_06h19m29s.log"
Gurobi Optimizer version 13.0.1 build v13.0.1rc0 (linux64 - "Linux Mint 22")

CPU model: 12th Gen Intel(R) Core(TM) i7-12700, instruction set [SSE2|AVX|AVX2]
Thread count: 20 physical cores, 20 logical processors, using up to 20 threads

Non-default parameters:
TimeLimit  3600
SoftMemLimit  12

Optimize a model with 60721 rows, 1531121 columns and 4635098 nonzeros (Max)
Model fingerprint: 0x61ef1ae8
Model has 1485111 linear objective coefficients
Variable types: 16121 continuous, 1515000 integer (1515000 binary)
Coefficient statistics:
  Matrix range     [3e-05, 1e+05]
  Objective range  [1e+00, 3e+03]
  Bounds range     [1e+00, 1e+05]
  RHS range        [1e+00, 1e+05]

Presolve removed 36714 rows and 1241081 columns
Presolve time: 0.66s
Presolved: 24007 rows, 290040 columns, 921754 nonzeros
Variable types: 6446 continuous, 283594 integer (283594 binary)
Found heuristic solution: objective -4.95506e+08
Performing another presolve...
Presolve added 0 rows and 10 columns
Presolve removed 18 rows and 0 columns
Presolve time: 1.22s
Deterministic concurrent LP optimizer: primal simplex, dual simplex, and barrier
Showing barrier log only...

Root barrier log...

Ordering time: 0.59s

Barrier statistics:
 AA' NZ     : 4.530e+05
 Factor NZ  : 4.046e+06 (roughly 160 MB of memory)
 Factor Ops : 1.382e+09 (less than 1 second per iteration)
 Threads    : 18

                  Objective                Residual
Iter       Primal          Dual         Primal    Dual     Compl     Time
   0  -2.18161674e+12  1.35026766e+09  8.62e+07 1.02e+03  2.21e+07     4s
   1  -2.39675861e+11  4.83732188e+09  9.49e+06 2.36e-11  2.50e+06     4s
   2  -9.61907854e+09  2.59158800e+09  3.80e+05 8.23e-11  1.04e+05     4s
   3  -8.02427233e+08  1.81002568e+09  3.33e+04 5.89e-11  1.18e+04     4s
   4   1.01840030e+08  1.18562521e+09  5.15e+03 4.91e-11  2.83e+03     4s
   5   2.01120248e+08  8.57152844e+08  2.15e+03 4.96e-11  1.47e+03     4s
   6   2.51322420e+08  5.31560436e+08  6.09e+02 4.96e-11  5.61e+02     4s
   7   2.62511745e+08  3.70212257e+08  2.83e+02 5.43e-11  2.19e+02     5s
   8   2.66982836e+08  3.30962355e+08  1.59e+02 4.80e-11  1.28e+02     5s
   9   2.70796990e+08  2.99673750e+08  5.74e+01 4.64e-11  5.60e+01     5s
  10   2.71656072e+08  2.84818637e+08  3.71e+01 1.24e-10  2.66e+01     5s
  11   2.72593216e+08  2.78366369e+08  1.55e+01 9.19e-11  1.14e+01     5s
  12   2.73072813e+08  2.75812500e+08  4.67e+00 8.37e-11  5.01e+00     5s
  13   2.73171372e+08  2.74314815e+08  2.68e+00 2.27e-10  2.05e+00     5s
  14   2.73227616e+08  2.73951510e+08  1.68e+00 1.69e-10  1.26e+00     5s
  15   2.73328402e+08  2.73730195e+08  3.60e-01 1.28e-10  6.82e-01     5s
  16   2.73354077e+08  2.73584680e+08  1.70e-01 1.05e-10  3.90e-01     5s
  17   2.73381900e+08  2.73507170e+08  6.18e-02 1.10e-10  2.12e-01     5s
  18   2.73387831e+08  2.73469314e+08  4.44e-02 1.07e-10  1.38e-01     5s
  19   2.73394194e+08  2.73437405e+08  2.68e-02 1.04e-10  7.30e-02     5s
  20   2.73401302e+08  2.73424262e+08  8.82e-03 1.03e-10  3.88e-02     5s
  21   2.73402433e+08  2.73419270e+08  6.10e-03 1.06e-10  2.84e-02     5s
  22   2.73403384e+08  2.73415564e+08  3.99e-03 1.22e-10  2.06e-02     5s
  23   2.73404055e+08  2.73412339e+08  2.56e-03 1.20e-10  1.40e-02     6s
  24   2.73404386e+08  2.73410332e+08  1.96e-03 1.33e-10  1.00e-02     6s
  25   2.73404524e+08  2.73408968e+08  1.69e-03 1.47e-10  7.50e-03     6s
  26   2.73405099e+08  2.73407750e+08  6.91e-04 1.14e-10  4.48e-03     6s
  27   2.73405231e+08  2.73407165e+08  4.65e-04 1.20e-10  3.27e-03     6s
  28   2.73405354e+08  2.73406753e+08  2.79e-04 1.23e-10  2.36e-03     6s
  29   2.73405387e+08  2.73406545e+08  2.30e-04 1.40e-10  1.95e-03     6s
  30   2.73405416e+08  2.73406279e+08  1.88e-04 1.55e-10  1.46e-03     6s
  31   2.73405448e+08  2.73406114e+08  1.38e-04 1.52e-10  1.12e-03     6s
  32   2.73405489e+08  2.73405863e+08  7.64e-05 1.14e-10  6.32e-04     6s
  33   2.73405517e+08  2.73405777e+08  4.40e-05 1.19e-10  4.39e-04     6s
  34   2.73405527e+08  2.73405737e+08  3.04e-05 1.30e-10  3.54e-04     6s
  35   2.73405534e+08  2.73405685e+08  2.17e-05 1.33e-10  2.55e-04     6s
  36   2.73405538e+08  2.73405654e+08  1.81e-05 1.16e-10  1.96e-04     6s
  37   2.73405548e+08  2.73405619e+08  7.24e-06 1.12e-10  1.20e-04     6s
  38   2.73405552e+08  2.73405578e+08  2.37e-06 1.15e-10  4.25e-05     7s
  39   2.73405553e+08  2.73405568e+08  1.97e-06 1.08e-10  2.48e-05     7s
  40   2.73405554e+08  2.73405567e+08  1.44e-06 1.24e-10  2.19e-05     7s
  41   2.73405555e+08  2.73405558e+08  9.68e-07 9.50e-11  5.72e-06     7s
  42   2.73405556e+08  2.73405557e+08  2.03e-07 1.21e-10  2.94e-06     7s

Barrier solved model in 42 iterations and 6.81 seconds (9.16 work units)
Optimal objective 2.73405556e+08


Root crossover log...

   12682 DPushes remaining with DInf 0.0000000e+00                 7s
       0 DPushes remaining with DInf 0.0000000e+00                 7s

    6287 PPushes remaining with PInf 1.4842826e-01                 7s
       0 PPushes remaining with PInf 0.0000000e+00                 7s

  Push phase complete: Pinf 0.0000000e+00, Dinf 5.1834824e+04      7s


Root simplex log...

Iteration    Objective       Primal Inf.    Dual Inf.      Time
   16982    2.7340556e+08   0.000000e+00   5.183482e+04      7s
   17823    2.7340556e+08   0.000000e+00   0.000000e+00      7s
Crossover time: 0.59 seconds (0.55 work units)
Concurrent spin time: 1.09s (can be avoided by choosing Method=3)

Solved with barrier

Root relaxation: objective 2.734056e+08, 17823 iterations, 5.49 seconds (5.07 work units)
Total elapsed time = 8.50s (DegenMoves)

    Nodes    |    Current Node    |     Objective Bounds      |     Work
 Expl Unexpl |  Obj  Depth IntInf | Incumbent    BestBd   Gap | It/Node Time

     0     0 2.7341e+08    0 7363 -4.955e+08 2.7341e+08   155%     -    9s
H    0     0                    -5.07249e+07 2.7341e+08   639%     -    9s
H    0     0                    -3.52394e+07 2.7341e+08   876%     -   10s
H    0     0                    -3.52387e+07 2.7341e+08   876%     -   10s
H    0     0                    -3.52364e+07 2.7341e+08   876%     -   10s
H    0     0                    -3.52359e+07 2.7341e+08   876%     -   10s
H    0     0                    -3.52358e+07 2.7341e+08   876%     -   10s
H    0     0                    -3.52356e+07 2.7341e+08   876%     -   10s
H    0     0                    1.267120e+08 2.7341e+08   116%     -   12s
H    0     0                    2.320580e+08 2.7341e+08  17.8%     -   12s
H    0     0                    2.373436e+08 2.7341e+08  15.2%     -   14s
     0     0 2.7341e+08    0 7576 2.3734e+08 2.7341e+08  15.2%     -   29s
H    0     0                    2.377370e+08 2.7341e+08  15.0%     -   35s
H    0     0                    2.446239e+08 2.7341e+08  11.8%     -   48s
     0     0 2.7341e+08    0 7569 2.4462e+08 2.7341e+08  11.8%     -   56s
     0     0 2.7340e+08    0 7756 2.4462e+08 2.7340e+08  11.8%     -  106s
H    0     0                    2.510999e+08 2.7340e+08  8.88%     -  110s
H    0     0                    2.511176e+08 2.7340e+08  8.87%     -  111s
H    0     0                    2.511202e+08 2.7340e+08  8.87%     -  118s
H    0     0                    2.511224e+08 2.7340e+08  8.87%     -  146s
H    0     0                    2.511249e+08 2.7340e+08  8.87%     -  158s
H    0     0                    2.511271e+08 2.7340e+08  8.87%     -  162s
H    0     0                    2.511292e+08 2.7340e+08  8.87%     -  162s
     0     0 2.7340e+08    0 7764 2.5113e+08 2.7340e+08  8.87%     -  208s
     0     0 2.7340e+08    0 7744 2.5113e+08 2.7340e+08  8.87%     -  213s
     0     0 2.7340e+08    0 7804 2.5113e+08 2.7340e+08  8.87%     -  216s
     0     0 2.7340e+08    0 7739 2.5113e+08 2.7340e+08  8.87%     -  221s
     0     0 2.7340e+08    0 7740 2.5113e+08 2.7340e+08  8.87%     -  223s
     0     0 2.7340e+08    0 7754 2.5113e+08 2.7340e+08  8.87%     -  233s
     0     0 2.7340e+08    0 7754 2.5113e+08 2.7340e+08  8.87%     -  236s
     0     0 2.7340e+08    0 7749 2.5113e+08 2.7340e+08  8.87%     -  236s
H    0     0                    2.511308e+08 2.7340e+08  8.87%     -  287s
H    0     0                    2.511311e+08 2.7340e+08  8.87%     -  287s
     0     2 2.7340e+08    0 7749 2.5113e+08 2.7340e+08  8.87%     -  288s
     1     4 2.7340e+08    1 7788 2.5113e+08 2.7340e+08  8.87%   788  330s
     3     8 2.7340e+08    2 7730 2.5113e+08 2.7340e+08  8.87%  5190  367s
H    7    16                    2.511312e+08 2.7340e+08  8.87%  4931  428s
H    8    16                    2.511314e+08 2.7340e+08  8.87%  4454  428s
H   15    32                    2.511323e+08 2.7340e+08  8.87%  5747  695s
    31    51 2.7340e+08    5 7900 2.5113e+08 2.7340e+08  8.87% 12679 1004s
H   32    51                    2.511327e+08 2.7340e+08  8.87% 12282 1004s
H   33    51                    2.511337e+08 2.7340e+08  8.87% 13595 1004s
H   36    51                    2.511342e+08 2.7340e+08  8.87% 16901 1004s
    50   109 2.7340e+08    6 7904 2.5113e+08 2.7340e+08  8.87% 25248 1277s
H   61   109                    2.511361e+08 2.7340e+08  8.87% 20971 1277s
H   62   109                    2.511476e+08 2.7340e+08  8.86% 20653 1277s
H   64   109                    2.530269e+08 2.7340e+08  8.05% 20030 1277s
H   72   109                    2.536122e+08 2.7340e+08  7.80% 17990 1277s
H  108   129                    2.539271e+08 2.7340e+08  7.67% 12685 1460s
H  109   129                    2.540596e+08 2.7340e+08  7.61% 12578 1460s
H  114   129                    2.540602e+08 2.7340e+08  7.61% 12072 1460s
H  115   129                    2.540607e+08 2.7340e+08  7.61% 12007 1460s
   128   251 2.7340e+08   11 7285 2.5406e+08 2.7340e+08  7.61% 11066 1901s
   250   483 2.7340e+08   12 8002 2.5406e+08 2.7340e+08  7.61%  6853 2749s
   482   503 2.7339e+08   13 6884 2.5406e+08 2.7340e+08  7.61%  4725 3600s
H  483   503                    2.540616e+08 2.7340e+08  7.61%  4716 3600s
H  487   503                    2.540622e+08 2.7340e+08  7.61%  4723 3600s
H  489   503                    2.540664e+08 2.7340e+08  7.61%  4709 3600s

Cutting planes:
  Implied bound: 1
  MIR: 21
  Flow cover: 110
  RLT: 2802
  Relax-and-lift: 59

Explored 502 nodes (2385651 simplex iterations) in 3600.34 seconds (2810.65 work units)
Thread count was 20 (of 20 available processors)

Solution count 10: 2.54066e+08 2.54066e+08 2.54062e+08 ... 2.53027e+08

Time limit reached
Warning: max constraint violation (2.3125e-06) exceeds tolerance
Best objective 2.540664345294e+08, best bound 2.734033538340e+08, gap 7.6110%
